
(set-logic ALL) 

(declare-datatype MyList ((Nil) (Cons (head Real) (tail MyList)) )) 
(declare-fun l0 () MyList) 
(declare-fun l1 () MyList) 
(declare-fun l2 () MyList) 
(declare-fun l3 () MyList) 
(declare-fun i0 () Real) 
(declare-fun i1 () Real) 
(assert (or (= l0 Nil) (= l1 Nil) (is-Cons Nil)) )
(assert (= l0 Nil) )
(assert (is-Cons Nil) )
(assert (not (= l1 Nil)) )
(assert (is-Cons Nil) )
(assert (or (is-Cons Nil) (= l0 l3)) )
(assert (= l3 l1) )
(assert (and (= l3 l0) (= l0 Nil) (is-Nil Nil) (is-Nil Nil)) )
(check-sat)
